
Gurobi 9.5.2 (win64) logging started Mon Mar 27 20:44:20 2023

Set parameter LogFile to value "2023-03-27_20hr-25min-09sec/Nodes20_Arcs25_LocNodes15/Formulation-1Instance-4.log"
Set parameter TimeLimit to value 600
Set parameter IntFeasTol to value 1e-09
Set parameter DualReductions to value 0
Set parameter NonConvex to value 2
Gurobi Optimizer version 9.5.2 build v9.5.2rc0 (win64)
Thread count: 4 physical cores, 8 logical processors, using up to 8 threads
Optimize a model with 81 rows, 140 columns and 290 nonzeros
Model fingerprint: 0xdec611ac
Model has 15 quadratic objective terms
Model has 45 SOS constraints
Variable types: 125 continuous, 15 integer (15 binary)
Coefficient statistics:
  Matrix range     [2e-02, 2e+02]
  Objective range  [3e+00, 2e+02]
  QObjective range [2e+00, 2e+00]
  Bounds range     [1e+00, 1e+00]
  RHS range        [6e-02, 1e+03]
Presolve removed 18 rows and 29 columns
Presolve time: 0.00s
Presolved: 86 rows, 124 columns, 264 nonzeros
Presolved model has 28 SOS constraint(s)
Presolved model has 11 bilinear constraint(s)
Variable types: 109 continuous, 15 integer (15 binary)

Root relaxation: unbounded, 53 iterations, 0.00 seconds (0.00 work units)

    Nodes    |    Current Node    |     Objective Bounds      |     Work
 Expl Unexpl |  Obj  Depth IntInf | Incumbent    BestBd   Gap | It/Node Time

     0     0  postponed    0               -          -      -     -    0s
     0     0  postponed    0               -          -      -     -    0s
Exploring 100 nodes in MinRel heuristic
H    0     0                    -5363.908779          -      -     -    0s
Feasible solution found by MinRel heuristic at node 103
     0     2  postponed    0      -5363.9088          -      -     -    0s
H 1299   142                    101362.68644          -      -   6.2    0s
* 1319   142              31    271223.46058          -      -   6.2    0s
* 1329   142              40    271371.47993          -      -   6.1    0s
* 1337   142              47    271388.64581          -      -   6.1    0s
H 1866   389                    271388.95088          -      -   5.9    0s
H 2102   389                    390266.90008          -      -   5.8    0s
H 2197   389                    504126.86094          -      -   5.6    0s
H 2816   479                    504155.29189          -      -   5.5    0s
H 2852   479                    504155.39498          -      -   5.4    0s
* 2950   479             102    504155.40412          -      -   5.2    0s
H 4273   246                    504329.40412          -      -   6.4    0s
*18973    91              56    504329.51498 509443.105  1.01%   6.6    2s
*18974    91              56    504329.82361 509443.105  1.01%   6.6    2s
*18978    91              57    504329.97792 509443.105  1.01%   6.6    2s
*18979    91              57    504330.08657 509443.105  1.01%   6.6    2s
*18981    91              57    504330.16742 509443.105  1.01%   6.6    2s
*18983    91              58    504330.19859 509443.105  1.01%   6.6    2s
*18984    91              58    504330.22069 509443.105  1.01%   6.6    2s
*19080   169              59    504330.69667 508490.036  0.82%   6.6    2s
*19086   169              60    504330.78186 508490.036  0.82%   6.6    2s
*19090   169              61    504330.79580 508490.036  0.82%   6.6    2s
*19093   169              63    504330.79662 508490.036  0.82%   6.6    2s

Explored 20347 nodes (127557 simplex iterations) in 2.45 seconds (0.40 work units)
Thread count was 8 (of 8 available processors)

Solution count 10: 504331 504331 504331 ... 504330

Optimal solution found (tolerance 1.00e-04)
Best objective 5.043307966183e+05, best bound 5.043325595776e+05, gap 0.0003%

User-callback calls 41072, time in user-callback 0.27 sec
